C2 N4                                   
   1.00000000000000     
     3.3149999999999999    0.0000000000000000    0.0000000000000000
     0.0000000000000000    3.3149999999999999    0.0000000000000000
     0.0000000000000000    0.0000000000000000   24.1265120000000017
   C    N 
     2     4
Direct
  0.0000000000000000  0.0000000000000000  0.5000000000000000
  0.5000000000000000  0.5000000000000000  0.5000000000000000
  0.3455536308226286  0.1544463691773714  0.5316591862957196
  0.1544463691773714  0.6544463691773714  0.4683408137042804
  0.6544463691773714  0.8455536308226286  0.5316591862957196
  0.8455536308226286  0.3455536308226286  0.4683408137042804
 
  0.00000000E+00  0.00000000E+00  0.00000000E+00
  0.00000000E+00  0.00000000E+00  0.00000000E+00
  0.00000000E+00  0.00000000E+00  0.00000000E+00
  0.00000000E+00  0.00000000E+00  0.00000000E+00
  0.00000000E+00  0.00000000E+00  0.00000000E+00
  0.00000000E+00  0.00000000E+00  0.00000000E+00
