Auto generated by PyGec
0
M
19 19  1
 0  0  0
